<number of tasks>
20

<cycle time>
1000

<order strength>
0,195


<task times>
1 196
2 64
3 57
4 218
5 190
6 54
7 196
8 237
9 130
10 90
11 77
12 176
13 255
14 131
15 84
16 126
17 279
18 147
19 183
20 34

<precedence relations>
1,7
4,8
7,9
8,10
8,11
8,12
9,15
10,13
10,14
12,16
12,17
13,18
14,19
15,20

<end>
